NAME : LPS-n26-m332
COMMENT : (Lartu-Peter-Santi Plot, instance 9532 out of 39200. 26 customers.)
TYPE : CVRP
DIMENSION : 26
EDGE_WEIGHT_TYPE : EUC_2D
CAPACITY : 115
NODE_COORD_SECTION
 1 98 14
 2 56 49
 3 46 12
 4 4 95
 5 3 96
 6 5 92
 7 43 35
 8 68 54
 9 23 27
 10 25 42
 11 0 75
 12 67 31
 13 17 68
 14 4 81
 15 43 28
 16 96 87
 17 79 82
 18 54 24
 19 48 43
 20 93 13
 21 40 68
 22 62 81
 23 23 33
 24 75 51
 25 90 39
 26 67 12
DEMAND_SECTION
1 0
2 13
3 30
4 104
5 107
6 43
7 49
8 93
9 108
10 51
11 73
12 21
13 85
14 112
15 23
16 19
17 63
18 34
19 47
20 68
21 103
22 22
23 83
24 103
25 48
26 64
DEPOT_SECTION
 1
 -1
EOF
